282,277
441,284
563,388
510,461
342,160
441,284
536,301
698,430
710,402
713,199
826,301
764,662
1081,610
948,542
909,480
894,514
935,152
1137,258
1071,406
909,480
948,542
761,366
765,-127
935,152
710,402
515,919
847,919
639,672
245,723
415,448
515,919
847,919
764,662
681,556
563,388
613,273
681,46
681,196
627,512
702,427
729,371
613,273
518,86
488,140
742,21
681,196
681,226
536,301
488,140
282,277
